TCS_Benchmarks/redos_fix/corpus1_output_distinct_2425_2424_28_0.txt
\S+
(\S+)(\s*[(].+,\s*savespace\s*=)(.+)
.+